NAME : sim51.82247.tour
COMMENT : Length = 82247
COMMENT : Found by LKH [Keld Helsgaun] Tue Sep 11 17:51:31 2018
TYPE : TOUR
DIMENSION : 51
TOUR_SECTION
1
21
49
27
20
6
44
18
33
11
42
29
46
50
19
30
10
34
12
41
9
7
22
3
45
48
16
5
40
17
38
15
36
39
51
31
35
8
23
32
37
2
43
28
13
14
26
4
25
47
24
-1
EOF
